
******************************************************************************
This program contains Ipopt, a library for large-scale nonlinear optimization.
 Ipopt is released as open source code under the Eclipse Public License (EPL).
         For more information visit http://projects.coin-or.org/Ipopt
******************************************************************************

This is Ipopt version 3.11.0, running with linear solver ma57.

Number of nonzeros in equality constraint Jacobian...:    11657
Number of nonzeros in inequality constraint Jacobian.:        0
Number of nonzeros in Lagrangian Hessian.............:        0

Total number of variables............................:     2108
                     variables with only lower bounds:        0
                variables with lower and upper bounds:     2108
                     variables with only upper bounds:        0
Total number of equality constraints.................:     1569
Total number of inequality constraints...............:        0
        inequality constraints with only lower bounds:        0
   inequality constraints with lower and upper bounds:        0
        inequality constraints with only upper bounds:        0

iter    objective    inf_pr   inf_du lg(mu)  ||d||  lg(rg) alpha_du alpha_pr  ls
   0 6.1246457e+000 5.08e+000 1.52e-001   0.0 0.00e+000    -  0.00e+000 0.00e+000   0
   1 5.6384979e+000 3.69e+000 3.27e+001  -5.4 1.93e+000    -  4.86e-002 1.71e-001h  1
   2 1.0543196e+001 3.26e+001 1.19e+004  -1.3 1.51e+000    -  9.90e-002 9.79e-001f  1
   3 6.6791577e+000 1.29e+000 3.70e+003  -1.6 1.91e-001    -  3.62e-001 9.91e-001f  1
   4 7.0067806e+000 1.47e-001 8.49e+003  -1.8 4.06e-002    -  9.11e-001 1.00e+000f  1
   5 4.2377817e+000 6.19e-001 2.83e+005  -2.0 3.01e-001    -  6.59e-001 1.00e+000f  1
   6 3.1950675e+000 2.06e+000 2.69e+004  -2.3 3.38e-001    -  8.49e-001 1.00e+000h  1
   7 9.1663669e+000 3.22e+000 1.35e+005  -1.9 6.42e-001    -  5.60e-001 7.59e-001f  1
   8 7.2012182e+000 2.58e+000 8.13e+004  -2.0 4.65e-001    -  3.86e-001 3.57e-001H  1
   9 6.0045717e+000 1.48e+000 5.46e+004  -2.0 7.12e-001    -  3.78e-001 5.22e-001h  1
iter    objective    inf_pr   inf_du lg(mu)  ||d||  lg(rg) alpha_du alpha_pr  ls
  10 5.9776543e+000 4.92e+000 3.39e+004  -2.0 2.76e-001    -  5.01e-001 1.00e+000h  1
  11 5.0746983e+000 1.95e+000 7.98e+001  -2.0 1.38e-001    -  1.00e+000 6.18e-001h  1
  12 4.5835600e+000 1.52e+000 5.39e+005  -8.0 1.79e-001    -  4.91e-001 1.00e+000h  1
  13 1.0726496e+001 8.36e+000 5.80e+002  -1.8 3.37e-001    -  1.00e+000 1.00e+000f  1
  14 5.7613033e+000 2.77e+000 1.18e+002  -1.9 1.53e-001    -  1.00e+000 1.00e+000h  1
  15 6.1245086e+000 1.66e+000 4.41e+001  -1.9 1.60e-001    -  1.00e+000 1.00e+000h  1
  16 4.4249433e+000 7.41e-001 2.68e+001  -2.4 1.34e-001    -  1.00e+000 1.00e+000h  1
  17 3.8865317e+000 2.59e-001 1.46e+001  -2.6 7.28e-002    -  1.00e+000 1.00e+000h  1
  18 3.1780440e+000 6.22e-001 6.48e+003  -2.7 1.63e-001    -  9.28e-001 1.00e+000h  1
  19 3.8416192e+000 1.41e+000 1.24e+005  -2.4 2.79e-001    -  1.00e+000 5.00e-001h  2
iter    objective    inf_pr   inf_du lg(mu)  ||d||  lg(rg) alpha_du alpha_pr  ls
  20 3.5017764e+000 9.03e-001 2.61e+001  -2.5 1.12e-001    -  1.00e+000 1.00e+000h  1
  21 2.6320508e+000 4.00e-001 6.26e+003  -2.9 1.02e-001    -  1.00e+000 9.70e-001h  1
  22 2.0197011e+000 5.33e+000 2.78e+004  -8.9 2.83e-001    -  5.89e-001 8.06e-001h  1
  23 1.4573624e+000 3.62e+000 1.77e+004  -3.9 4.05e-001    -  3.55e-001 3.36e-001h  1
  24 1.4256777e+000 3.48e+000 2.11e+004  -2.5 1.12e+000    -  1.98e-002 7.89e-003F  1
  25 1.3676185e+000 3.38e+000 1.93e+004  -4.1 4.63e+000    -  9.04e-002 1.01e-001H  1
  26 1.1284844e+000 2.83e+000 1.36e+004  -9.4 2.20e-001    -  2.33e-001 1.80e-001h  1
  27 9.5814052e-001 2.27e+000 9.29e+003  -5.4 1.95e-001    -  2.60e-001 2.19e-001h  1
  28 8.0735558e-001 1.52e+000 5.88e+003  -5.7 1.65e-001    -  3.64e-001 3.63e-001h  1
  29 7.3872517e-001 1.34e+000 5.04e+002  -9.8 3.66e-001    -  4.87e-001 1.17e-001h  1
iter    objective    inf_pr   inf_du lg(mu)  ||d||  lg(rg) alpha_du alpha_pr  ls
  30 7.7971251e-001 9.30e-001 1.96e+002  -4.1 4.11e-001    -  6.25e-001 6.81e-001h  1
  31 8.7023871e-001 6.16e-001 2.62e+003  -3.7 1.10e-001    -  4.99e-001 7.24e-001h  1
  32 9.6356623e-001 8.76e-001 7.50e+003  -3.6 1.16e-001    -  1.68e-001 7.44e-001h  1
  33 9.9951572e-001 8.04e-001 1.05e+004  -3.3 1.40e-001    -  1.03e-002 1.17e-001H  1
  34 8.0287559e-001 6.59e-001 7.69e+003  -3.9 1.39e-001    -  5.75e-001 3.27e-001h  1
  35 1.1996520e+000 5.18e-001 1.08e+003  -3.3 1.50e-001    -  9.67e-001 1.00e+000f  1
  36 1.2865692e+000 8.01e-001 2.67e+003  -3.4 2.38e-001    -  6.83e-001 1.00e+000h  1
  37 9.8581624e-001 2.04e-001 2.14e+003  -3.4 7.49e-002    -  1.96e-001 1.00e+000h  1
  38 8.8305247e-001 1.75e-001 1.04e+001  -3.6 5.52e-002    -  1.00e+000 1.00e+000h  1
  39 7.2879707e-001 1.38e-001 2.61e+003  -4.0 7.26e-002    -  7.22e-001 8.86e-001h  1
iter    objective    inf_pr   inf_du lg(mu)  ||d||  lg(rg) alpha_du alpha_pr  ls
  40 6.3194802e-001 2.08e-001 3.56e+003  -4.8 2.88e-001    -  2.02e-001 3.44e-001h  1
  41 7.1864817e-001 2.36e-001 7.97e+002  -3.7 1.64e-001    -  2.22e-001 5.00e-001h  2
  42 6.6241243e-001 3.97e-001 1.11e+003  -3.9 1.83e-001    -  4.52e-001 2.61e-001h  1
  43 5.6703735e-001 1.53e-001 1.84e+001  -3.9 5.35e-002    -  1.00e+000 1.00e+000h  1
  44 5.9212959e-001 1.70e-001 5.80e+002  -3.7 1.22e-001    -  3.19e-001 2.54e-001H  1
  45 5.7390620e-001 1.36e-001 8.29e+002  -3.9 6.39e-002    -  6.23e-001 8.85e-001h  1
  46 6.9346571e-001 1.49e-001 2.53e+003  -3.7 8.38e-002    -  7.42e-001 1.00e+000f  1
  47 6.7448102e-001 1.84e-001 2.21e+003  -3.8 1.16e-001    -  8.04e-001 4.36e-001h  1
  48 5.4377182e-001 1.89e-001 4.86e+002  -3.8 7.12e-002    -  8.65e-001 1.00e+000h  1
  49 5.3544870e-001 1.30e-001 2.23e+002  -3.8 1.30e-001    -  7.15e-001 5.00e-001h  2
iter    objective    inf_pr   inf_du lg(mu)  ||d||  lg(rg) alpha_du alpha_pr  ls
  50 5.4528002e-001 2.36e-001 1.51e+001  -3.9 1.03e-001    -  1.00e+000 1.00e+000h  1
  51 4.7783475e-001 1.91e-001 5.01e+002  -4.3 2.37e-001    -  4.49e-001 5.09e-001h  1
  52 4.4329084e-001 1.47e-001 3.39e+002  -4.0 2.26e-001    -  6.25e-001 2.81e-001h  2
  53 4.2910940e-001 7.82e-002 1.28e+002  -4.0 8.41e-002    -  1.00e+000 6.31e-001h  1
  54 5.9294727e-001 2.86e-001 1.82e+001  -3.8 9.67e-002    -  1.00e+000 1.00e+000h  1
  55 5.5602018e-001 3.33e-001 1.52e+003  -3.9 1.66e-001    -  7.40e-001 2.90e-001h  2
  56 4.7081356e-001 3.50e-001 6.59e+002  -3.9 2.04e-001    -  1.00e+000 7.25e-001h  1
  57 5.1282133e-001 3.38e-001 3.63e+002  -3.9 2.03e-001    -  9.60e-001 4.46e-001H  1
  58 4.5325851e-001 1.69e-001 7.86e+000  -3.9 3.00e-002    -  3.99e-001 1.00e+000h  1
  59 4.6448835e-001 9.00e-002 3.72e+000  -3.9 2.03e-002    -  1.00e+000 1.00e+000h  1
iter    objective    inf_pr   inf_du lg(mu)  ||d||  lg(rg) alpha_du alpha_pr  ls
  60 3.9255142e-001 1.18e-001 8.20e+000  -4.2 6.66e-002    -  1.00e+000 1.00e+000h  1
  61 3.4677482e-001 3.57e-001 1.07e+003  -4.4 2.53e-001    -  8.72e-001 4.82e-001h  1
  62 3.4741860e-001 2.90e-001 3.97e+002  -4.1 3.27e-001    -  4.63e-001 4.00e-001h  2
  63 3.3600566e-001 1.89e-001 2.64e+002  -4.3 1.67e-001    -  5.91e-001 5.26e-001h  1
  64 3.0705496e-001 1.47e-001 2.62e+002 -10.3 8.12e-002    -  2.34e-001 2.24e-001h  1
  65 3.0669690e-001 1.47e-001 9.05e+002 -10.4 2.61e-001    -  1.55e-001 1.03e-003h  1
  66 3.0625812e-001 1.46e-001 9.26e+002 -10.4 9.69e-002    -  1.01e-002 3.39e-003h  1
  67 3.0581138e-001 1.46e-001 1.39e+003 -10.4 3.00e-001    -  1.33e-001 1.36e-003h  1
  68 3.0579175e-001 1.46e-001 1.40e+003 -10.5 2.97e-001    -  4.86e-003 6.58e-005h  1
  69 3.0855554e-001 1.47e-001 1.40e+003  -4.6 9.60e+000    -  5.27e-005 7.43e-004f  5
iter    objective    inf_pr   inf_du lg(mu)  ||d||  lg(rg) alpha_du alpha_pr  ls
  70 3.0471791e-001 6.50e-001 1.39e+003  -4.6 1.01e+001    -  7.34e-004 6.53e-003h  2
  71 2.8294137e-001 4.93e-001 1.08e+003  -4.5 3.20e-001    -  5.05e-001 2.43e-001h  1
  72 2.8623017e-001 1.36e-001 2.69e+002  -4.5 5.42e-002    -  5.26e-001 7.74e-001h  1
  73 2.7876087e-001 7.09e-002 5.84e+002  -4.3 3.79e-002    -  4.47e-001 6.43e-001h  1
  74 3.4317567e-001 4.76e-001 8.62e+000  -4.1 9.39e-002    -  1.00e+000 1.00e+000h  1
  75 3.4485666e-001 2.20e-001 8.35e+001  -4.2 6.71e-002    -  5.91e-001 5.33e-001H  1
  76 3.2278972e-001 6.40e-002 1.23e+001  -4.2 4.90e-002    -  1.00e+000 1.00e+000h  1
  77 3.1210649e-001 7.25e-002 6.97e+000  -4.2 2.32e-002    -  1.00e+000 9.79e-001h  1
  78 4.5391074e-001 5.77e-001 9.67e+000  -3.7 1.66e-001    -  1.00e+000 1.00e+000h  1
  79 4.6510282e-001 4.35e-001 6.50e+002  -3.8 1.25e-001    -  4.60e-001 2.50e-001h  3
iter    objective    inf_pr   inf_du lg(mu)  ||d||  lg(rg) alpha_du alpha_pr  ls
  80 5.2082552e-001 2.70e-001 8.60e+002  -3.8 3.49e-002    -  4.85e-001 1.00e+000h  1
  81 4.5654043e-001 1.17e-001 2.77e+000  -3.8 3.65e-002    -  1.00e+000 8.51e-001h  1
  82 4.6436413e-001 3.49e-001 4.86e+000  -3.8 5.98e-002    -  4.98e-001 4.67e-001h  2
  83 4.4997176e-001 1.31e-001 3.99e+000  -3.8 3.59e-002    -  1.00e+000 1.00e+000h  1
  84 3.7315118e-001 1.99e-001 8.60e+000  -4.1 1.06e-001    -  1.00e+000 1.00e+000h  1
  85 3.4993116e-001 1.42e-001 8.99e+000  -4.1 1.08e-001    -  2.88e-001 2.83e-001H  1
  86 3.3529682e-001 1.37e-001 1.58e+001  -4.1 7.56e-002    -  6.21e-001 6.11e-001h  1
  87 3.3237791e-001 5.14e-002 9.12e+001  -4.1 1.57e-002    -  1.00e+000 8.11e-001h  1
  88 3.3839440e-001 3.12e-002 2.33e+000  -4.1 1.16e-002    -  1.00e+000 1.00e+000h  1
  89 3.2502185e-001 3.83e-002 4.40e+002  -4.3 6.58e-002    -  6.55e-001 4.12e-001H  1
iter    objective    inf_pr   inf_du lg(mu)  ||d||  lg(rg) alpha_du alpha_pr  ls
  90 2.9885638e-001 6.77e-002 5.07e+002  -4.3 9.61e-002    -  8.22e-001 5.56e-001h  1
  91 2.8664444e-001 6.56e-002 1.19e+003  -4.4 9.90e-002    -  8.67e-001 2.25e-001H  1
  92 2.7555655e-001 8.02e-002 7.29e+002  -4.5 5.69e-002    -  7.02e-001 5.00e-001h  2
  93 2.7355412e-001 7.54e-002 9.51e+002  -4.5 4.79e-002    -  4.84e-001 6.01e-002H  1
  94 3.1712857e-001 2.31e-001 5.04e+000  -4.2 7.19e-002    -  1.00e+000 1.00e+000h  1
  95 3.1871459e-001 1.20e-001 5.33e+001  -4.3 5.17e-002    -  5.26e-001 4.80e-001H  1
  96 2.8207493e-001 1.17e-001 4.39e+000  -4.3 4.00e-002    -  1.00e+000 1.00e+000h  1
  97 2.9351785e-001 6.77e-002 4.24e+000  -4.3 2.48e-002    -  1.00e+000 7.83e-001h  1
  98 2.8209831e-001 1.85e-002 1.11e+000  -4.3 1.52e-002    -  3.94e-001 1.00e+000h  1
  99 2.5419281e-001 4.51e-002 1.71e+000  -4.8 5.65e-002    -  1.00e+000 1.00e+000h  1
iter    objective    inf_pr   inf_du lg(mu)  ||d||  lg(rg) alpha_du alpha_pr  ls
 100 2.4334170e-001 2.84e-001 4.54e+002 -10.8 3.16e-001    -  5.23e-001 2.44e-001h  1
 101 2.4425937e-001 1.86e-001 3.73e+002  -5.4 1.20e-001    -  5.67e-001 3.46e-001H  1
 102 2.2819239e-001 4.12e-001 4.96e+002  -4.8 4.58e-002    -  4.56e-001 9.63e-001h  1
 103 2.2053839e-001 3.31e-001 7.94e+002 -11.0 6.90e-002    -  5.83e-001 1.94e-001h  1
 104 2.2355412e-001 2.49e-001 6.86e+002  -4.7 9.13e-002    -  1.98e-001 2.46e-001h  1
 105 2.2212727e-001 1.49e-001 5.04e+002  -4.8 1.92e-002    -  2.77e-001 4.01e-001h  1
 106 2.1342825e-001 4.08e-002 1.21e+000  -5.0 2.49e-002    -  1.00e+000 1.00e+000h  1
 107 2.0638247e-001 6.46e-002 3.00e+002  -6.0 1.00e-001    -  6.96e-001 3.51e-001h  1
 108 2.0298984e-001 4.59e-002 2.74e+002  -6.3 1.36e-001    -  4.74e-001 2.84e-001h  1
 109 2.0102912e-001 4.32e-002 1.40e+002  -5.1 1.22e-001    -  4.15e-001 3.47e-001H  1
iter    objective    inf_pr   inf_du lg(mu)  ||d||  lg(rg) alpha_du alpha_pr  ls
 110 2.0051198e-001 4.17e-002 1.16e+002  -5.1 7.81e-002    -  8.38e-002 3.66e-002H  1
 111 1.9536336e-001 1.05e-001 3.10e+001 -11.0 5.29e-002    -  1.30e-001 2.44e-001h  1
 112 1.9274707e-001 5.00e-002 7.16e+001  -5.5 2.36e-002    -  9.92e-001 5.25e-001h  1
 113 1.9092473e-001 3.60e-002 1.12e+002  -5.7 3.02e-002    -  8.23e-001 2.76e-001h  1
 114 1.8919738e-001 3.75e-002 7.11e+001  -5.7 4.32e-002    -  5.13e-001 3.93e-001h  1
 115 1.8876110e-001 2.84e-002 8.35e+001  -6.3 1.58e-001    -  4.31e-001 2.41e-001H  1
 116 1.8915793e-001 1.54e-001 7.54e+001  -5.5 1.48e-001    -  2.87e-001 4.27e-001h  1
 117 1.8813853e-001 1.26e-001 7.15e+001  -5.8 1.28e-001    -  4.89e-001 1.85e-001h  1
 118 1.8682258e-001 1.09e-001 5.89e+001 -11.0 2.04e-002    -  1.18e-001 1.34e-001h  1
 119 1.8422122e-001 7.32e-002 8.86e+000  -7.9 3.01e-002    -  1.20e-002 3.27e-001h  1
iter    objective    inf_pr   inf_du lg(mu)  ||d||  lg(rg) alpha_du alpha_pr  ls
 120 1.8420376e-001 7.30e-002 2.17e+001 -11.0 2.59e-002    -  2.02e-001 3.45e-003h  1
 121 1.8472011e-001 5.17e-002 5.83e+001  -5.4 4.23e-002    -  1.26e-001 2.90e-001h  1
 122 1.8491411e-001 3.88e-002 4.93e+001  -5.5 1.24e-002    -  2.07e-001 2.49e-001h  1
 123 1.8435599e-001 3.35e-002 9.56e+001 -11.0 3.48e-002    -  4.28e-001 1.38e-001h  1
 124 1.8925614e-001 3.51e-002 2.35e+001 -11.0 1.77e-001    -  1.05e-001 4.18e-001H  1
 125 1.8643391e-001 2.87e-002 2.66e+001  -6.7 5.97e-002    -  2.96e-001 1.90e-001h  1
 126 1.8338359e-001 2.70e-002 2.20e+001 -11.0 5.56e-002    -  1.42e-001 1.50e-001h  1
 127 1.8213203e-001 1.85e-002 2.29e+001  -6.6 1.28e-002    -  4.59e-001 2.75e-001h  1
 128 1.8147242e-001 1.23e-002 3.05e+001  -6.9 1.15e-002    -  6.34e-001 2.36e-001h  1
 129 1.8130719e-001 4.99e-002 3.45e+001  -6.0 2.85e-002    -  1.77e-001 4.38e-001h  1
iter    objective    inf_pr   inf_du lg(mu)  ||d||  lg(rg) alpha_du alpha_pr  ls
 130 1.8107395e-001 4.17e-002 2.87e+001  -6.5 1.55e-002    -  5.19e-001 1.64e-001h  1
 131 1.8091785e-001 2.90e-002 1.89e+001  -6.4 1.17e-002    -  8.64e-001 3.05e-001h  1
 132 1.8059095e-001 2.01e-002 1.42e+001  -6.5 6.03e-002    -  7.68e-001 3.01e-001h  1
 133 1.8074098e-001 1.34e-002 1.10e+001  -6.5 1.11e-001    -  1.00e+000 3.31e-001H  1
 134 1.8095151e-001 9.45e-003 7.06e+000  -6.5 1.09e-001    -  4.84e-001 3.42e-001H  1
 135 1.8054161e-001 1.73e-002 5.25e+000  -6.5 5.43e-002    -  6.57e-001 2.16e-001h  2
 136 1.7985735e-001 8.51e-003 7.71e-001  -6.7 1.52e-002    -  2.80e-001 5.06e-001h  1
 137 1.7963666e-001 7.05e-003 4.34e+000  -7.3 8.62e-003    -  3.65e-001 1.71e-001h  1
 138 1.7941157e-001 3.81e-003 4.17e+000  -7.2 4.25e-003    -  6.18e-001 4.81e-001h  1
 139 1.7932274e-001 3.76e-003 8.08e+000  -7.4 1.54e-002    -  8.08e-001 1.91e-001h  1
iter    objective    inf_pr   inf_du lg(mu)  ||d||  lg(rg) alpha_du alpha_pr  ls
 140 1.7924521e-001 4.05e-003 7.19e+000  -7.2 5.26e-002    -  2.95e-001 9.32e-002h  1
 141 1.7904457e-001 2.32e-002 2.46e+000  -6.7 1.70e-001    -  4.19e-001 1.94e-001h  1
 142 1.7899783e-001 2.17e-002 2.69e+000  -6.7 4.63e-001    -  5.53e-001 6.17e-002h  2
 143 1.7996914e-001 3.02e-002 1.86e+000  -6.7 1.30e-001    -  4.43e-001 3.25e-001H  1
 144 1.7938952e-001 2.11e-002 1.12e+000  -6.8 3.35e-002    -  3.30e-001 2.58e-001h  1
 145 1.7899834e-001 2.25e-002 6.83e-001  -6.8 3.75e-002    -  3.31e-001 1.87e-001h  1
 146 1.7879169e-001 2.24e-002 3.62e+000 -11.0 7.05e-002    -  3.33e-001 7.15e-002h  1
 147 1.7948691e-001 2.46e-002 9.61e+000  -6.3 3.26e-002    -  8.77e-001 5.74e-001f  1
 148 1.7904790e-001 1.26e-002 3.50e+000  -6.5 1.41e-002    -  6.45e-001 4.87e-001h  1
 149 1.7999741e-001 1.69e-002 3.19e+001  -5.8 1.24e-002    -  8.38e-001 5.96e-001f  1
iter    objective    inf_pr   inf_du lg(mu)  ||d||  lg(rg) alpha_du alpha_pr  ls
 150 1.8000700e-001 1.66e-002 3.03e+001  -5.9 2.97e-002    -  5.62e-002 1.48e-002H  1
 151 1.8045726e-001 2.46e-002 1.81e+001  -5.9 1.09e-002    -  3.28e-001 9.39e-001h  1
 152 1.8032677e-001 1.03e-002 1.16e+000  -5.9 3.64e-003    -  9.33e-001 1.00e+000f  1
 153 1.8005410e-001 4.48e-003 2.82e-001  -6.0 4.49e-003    -  1.00e+000 9.98e-001h  1
 154 1.8003692e-001 3.60e-003 7.33e-001  -6.1 4.50e-003    -  2.37e-001 2.97e-001H  1
 155 1.7977897e-001 1.04e-002 2.85e+000  -6.1 5.94e-003    -  5.23e-001 6.58e-001H  1
 156 1.7968643e-001 4.19e-003 8.36e-001  -6.1 2.86e-003    -  1.00e+000 8.67e-001f  1
 157 1.8088590e-001 7.62e-003 8.29e-001  -5.9 4.87e-003    -  1.00e+000 1.00e+000f  1
 158 1.8038936e-001 6.97e-003 4.71e+000  -6.0 6.99e-003    -  7.85e-001 6.11e-001h  1
 159 1.8036095e-001 4.51e-003 2.43e+000  -6.0 4.37e-003    -  2.54e-001 3.53e-001H  1
iter    objective    inf_pr   inf_du lg(mu)  ||d||  lg(rg) alpha_du alpha_pr  ls
 160 1.8038992e-001 4.32e-003 1.44e+000  -6.0 3.88e-003    -  6.77e-002 1.92e-001F  1
 161 1.8037929e-001 3.73e-003 2.48e+000  -6.0 1.01e-002    -  4.49e-001 1.37e-001f  3
 162 1.8027446e-001 4.93e-003 1.33e+000  -6.0 7.49e-003    -  8.01e-001 6.30e-001h  1
 163 1.8028582e-001 8.62e-003 2.85e-001  -6.0 4.26e-003    -  1.00e+000 1.00e+000f  1
 164 1.8026951e-001 2.98e-003 1.37e-001  -6.0 1.32e-003    -  1.00e+000 1.00e+000h  1
 165 1.7976545e-001 3.72e-003 1.42e-001  -6.5 2.13e-003    -  1.00e+000 1.00e+000h  1
 166 1.7950325e-001 9.41e-003 3.26e-001  -6.2 4.55e-003    -  1.00e+000 1.00e+000h  1
 167 1.7941638e-001 4.38e-003 6.45e-001  -6.3 2.46e-003    -  1.00e+000 9.29e-001h  1
 168 1.7916834e-001 4.14e-003 1.98e-003  -6.3 8.94e-003    -  1.00e+000 1.00e+000h  1
 169 1.7913943e-001 2.76e-003 2.33e-001  -6.3 4.34e-003    -  5.15e-001 3.31e-001H  1
iter    objective    inf_pr   inf_du lg(mu)  ||d||  lg(rg) alpha_du alpha_pr  ls
 170 1.7915280e-001 2.58e-003 1.66e-001  -6.3 1.84e-003    -  8.59e-001 5.00e-001h  2
 171 1.7913149e-001 1.72e-003 4.47e-001  -6.4 6.28e-003    -  4.09e-001 3.68e-001H  1
 172 1.7903826e-001 3.26e-003 4.27e+000  -6.4 1.28e-003    -  2.20e-001 1.00e+000f  1
 173 1.7905568e-001 1.41e-003 3.52e-003  -6.4 2.25e-003    -  8.17e-001 7.67e-001h  1
 174 1.7889360e-001 4.15e-003 3.10e-001  -6.6 2.08e-003    -  1.00e+000 1.00e+000h  1
 175 1.7868596e-001 5.14e-003 1.33e+001 -11.0 5.54e-003    -  8.73e-001 3.92e-001h  1
 176 1.7856525e-001 3.76e-003 8.04e+000  -7.3 1.09e-002    -  6.63e-001 3.78e-001h  1
 177 1.7851156e-001 2.43e-003 4.19e+000  -7.0 5.80e-003    -  5.15e-001 3.02e-001h  1
 178 1.7842860e-001 2.17e-003 1.60e-003  -7.3 1.54e-003    -  1.00e+000 7.12e-001h  1
 179 1.7841102e-001 2.15e-003 1.18e-003  -7.8 1.19e-003    -  5.04e-001 1.90e-001h  1
iter    objective    inf_pr   inf_du lg(mu)  ||d||  lg(rg) alpha_du alpha_pr  ls
 180 1.7837591e-001 2.06e-003 1.42e-003  -8.5 1.33e-002    -  8.65e-001 1.47e-001h  1
 181 1.7839167e-001 2.04e-003 2.17e-003  -6.9 5.85e-003    -  9.67e-001 5.07e-001h  1
 182 1.7832812e-001 3.85e-003 5.83e-003 -11.0 1.75e-002    -  6.20e-001 2.27e-001h  1
 183 1.7828155e-001 9.28e-003 6.41e-003  -8.1 8.50e-003    -  2.76e-001 2.95e-001h  1
 184 1.7823924e-001 5.69e-003 8.41e-001  -7.0 2.35e-002    -  3.19e-001 2.09e-001h  1
 185 1.7822475e-001 1.60e-002 1.02e+000  -7.9 2.04e-002    -  6.32e-001 2.72e-001h  1
 186 1.7816725e-001 1.11e-002 6.05e-001  -7.6 6.21e-003    -  7.57e-001 5.10e-001h  1
 187 1.7836969e-001 1.21e-002 3.02e+000  -7.0 7.23e-003    -  5.67e-001 1.00e+000h  1
 188 1.7821551e-001 3.06e-003 1.27e+000  -7.3 2.51e-003    -  1.00e+000 6.94e-001h  1
 189 1.7832541e-001 5.30e-003 3.81e+000  -6.8 3.90e-003    -  6.66e-001 1.00e+000f  1
iter    objective    inf_pr   inf_du lg(mu)  ||d||  lg(rg) alpha_du alpha_pr  ls
 190 1.7825336e-001 2.55e-003 1.39e-003  -7.0 1.37e-003    -  1.00e+000 9.93e-001h  1
 191 1.7816377e-001 4.25e-003 1.28e-003 -11.0 1.02e-002    -  3.08e-001 4.05e-001h  1
 192 1.7812334e-001 4.17e-003 1.42e-003  -8.8 7.89e-003    -  2.31e-001 2.38e-001h  1
 193 1.7812527e-001 2.95e-003 3.33e-003  -7.6 1.13e-002    -  9.60e-001 7.43e-001h  1
 194 1.7812684e-001 2.87e-003 3.21e-003  -6.9 6.82e-003    -  3.16e-002 2.92e-002H  1
 195 1.7810809e-001 3.31e-003 3.36e-003  -7.6 1.25e-002    -  3.85e-002 9.46e-002h  1
 196 1.7817834e-001 2.98e-003 2.45e-003  -7.1 4.77e-003    -  1.75e-001 7.65e-001f  1
 197 1.7813895e-001 2.14e-003 1.06e-001  -7.5 3.52e-003    -  9.36e-002 2.59e-001h  1
 198 1.7808270e-001 3.93e-003 1.23e-003  -7.5 8.16e-003    -  4.55e-001 4.51e-001f  1
 199 1.7811497e-001 2.92e-003 1.46e-003  -7.2 1.20e-002    -  6.31e-001 7.51e-001f  1
iter    objective    inf_pr   inf_du lg(mu)  ||d||  lg(rg) alpha_du alpha_pr  ls
 200 1.7810296e-001 6.77e-003 6.67e-001  -7.4 3.25e-002    -  7.26e-001 1.13e-001h  2
 201 1.7806636e-001 5.89e-003 4.02e-001  -7.4 1.06e-002    -  7.26e-001 5.01e-001h  1
 202 1.7802366e-001 2.97e-002 2.11e-001  -7.4 1.72e-002    -  1.00e+000 9.89e-001f  1
 203 1.7795306e-001 1.90e-002 1.39e+000 -11.0 1.02e-002    -  7.39e-001 4.24e-001h  1
 204 1.7793249e-001 1.66e-002 1.78e+000 -11.0 8.94e-003    -  6.70e-001 1.48e-001h  1
 205 1.7791189e-001 1.71e-002 1.19e+000  -9.2 1.56e-002    -  4.45e-002 2.91e-001h  1
 206 1.7791003e-001 1.75e-002 1.20e+000 -11.0 3.66e-002    -  8.34e-002 1.32e-002h  1
 207 1.7791169e-001 1.49e-002 1.10e+000  -8.9 4.66e-003    -  6.11e-001 1.60e-001h  1
 208 1.7794213e-001 5.15e-003 7.10e-004  -8.0 2.45e-003    -  6.49e-001 6.58e-001h  1
 209 1.7796914e-001 2.87e-003 1.58e-003  -7.5 4.87e-003    -  4.55e-001 4.80e-001h  2
iter    objective    inf_pr   inf_du lg(mu)  ||d||  lg(rg) alpha_du alpha_pr  ls
 210 1.7805829e-001 1.50e-003 3.07e-003  -7.9 6.44e-003    -  9.78e-001 9.40e-001H  1
 211 1.7803004e-001 2.34e-003 2.93e-003 -11.0 9.54e-003    -  8.26e-002 8.91e-002h  1
 212 1.7801413e-001 4.48e-003 1.11e+000  -7.5 9.12e-003    -  2.35e-001 9.00e-001h  1
 213 1.7799705e-001 2.71e-003 2.46e-003  -7.9 4.67e-003    -  6.95e-001 3.14e-001h  1
 214 1.7796004e-001 6.46e-003 5.23e-002  -7.9 1.83e-002    -  1.02e-001 1.88e-001h  1
 215 1.7795370e-001 4.81e-003 1.49e-003  -7.9 4.92e-003    -  6.51e-001 6.04e-001f  1
 216 1.7794919e-001 4.66e-003 1.79e-003  -7.9 6.44e-003    -  6.63e-001 2.45e-001f  1
 217 1.7794715e-001 2.80e-003 1.55e-003  -7.9 3.58e-003    -  8.33e-001 4.15e-001f  1
 218 1.7795056e-001 3.10e-003 2.25e-003  -7.5 4.30e-003    -  8.87e-001 2.25e-001f  1
 219 1.7794917e-001 1.94e-003 2.90e-003  -7.5 8.40e-003    -  1.44e-001 2.66e-001H  1
iter    objective    inf_pr   inf_du lg(mu)  ||d||  lg(rg) alpha_du alpha_pr  ls
 220 1.7793668e-001 1.70e-003 3.72e-003 -11.0 4.35e-003    -  6.24e-001 1.68e-001h  1
 221 1.7792360e-001 4.82e-003 3.54e-003  -8.8 6.68e-003    -  3.53e-001 2.02e-001h  1
 222 1.7792404e-001 4.43e-003 2.27e-003  -8.1 1.20e-003    -  6.36e-001 5.20e-002h  1
 223 1.7791224e-001 3.38e-003 1.97e-003  -9.9 2.70e-003    -  2.64e-001 4.25e-001h  1
 224 1.7791338e-001 2.84e-003 1.72e-003  -8.5 1.59e-003    -  3.08e-001 1.67e-001h  1
 225 1.7791806e-001 1.68e-003 1.33e-003  -8.5 2.00e-003    -  1.06e-001 4.10e-001h  1
 226 1.7793113e-001 4.66e-004 9.73e-004  -8.3 7.20e-004    -  1.00e+000 6.83e-001H  1

Number of Iterations....: 226

                                   (scaled)                 (unscaled)
Objective...............:  3.8717659701427085e-002   1.7793113093910290e-001
Dual infeasibility......:  9.7281364590160466e-004   4.4706687734508005e-003
Constraint violation....:  1.6152155806080880e-004   4.6592708691380660e-004
Complementarity.........:  1.1744956111402698e-008   5.3975197360779098e-008
Overall NLP error.......:  9.7281364590160466e-004   4.4706687734508005e-003


Number of objective function evaluations             = 315
Number of objective gradient evaluations             = 227
Number of equality constraint evaluations            = 315
Number of inequality constraint evaluations          = 0
Number of equality constraint Jacobian evaluations   = 227
Number of inequality constraint Jacobian evaluations = 0
Number of Lagrangian Hessian evaluations             = 0
Total CPU secs in IPOPT (w/o function evaluations)   =     35.268
Total CPU secs in NLP function evaluations           =   3613.642

EXIT: Optimal Solution Found.